Geographic Exponential Decay
80 174 206 247 219 52 130 302 253 272 286 107 229 216 292 294 155 38 47 152 7 32 241 54 78 146 69 220 56 42 277 169 58 250 315 299 72 184 296 257 298 261 28 304 192 124 19 148 128 89 67 63 213 45 200 204 297 59 64 36 291 24 242 118 231 265 318 158 221 269 279 51 207 147 143 31 53 171 283 190 188
p edge 320 320
e 0 299 95.0
e 0 60 43.0
e 1 79 1.0
e 1 0 7.0
e 2 260 2.0
e 2 1 4.0
e 3 34 1.0
e 3 2 1.0
e 4 14 2.0
e 4 3 5.0
e 5 91 3.0
e 5 4 3.0
e 6 317 7.0
e 6 5 5.0
e 7 160 7.0
e 7 85 16.0
e 7 300 21.0
e 7 6 63.0
e 8 107 2.0
e 8 7 19.0
e 9 196 5.0
e 9 8 2.0
e 10 293 1.0
e 10 9 2.0
e 11 195 4.0
e 11 10 1.0
e 12 119 4.0
e 12 11 5.0
e 13 45 90.0
e 13 12 2.0
e 15 307 4.0
e 15 13 1.0
e 16 84 2.0
e 16 15 1.0
e 17 214 2.0
e 17 16 1.0
e 18 299 85.0
e 19 83 67.0
e 19 22 46.0
e 19 318 30.0
e 19 17 64.0
e 20 234 4.0
e 20 19 3.0
e 21 110 9.0
e 21 20 1.0
e 23 218 10.0
e 23 21 2.0
e 24 184 43.0
e 24 230 56.0
e 24 25 68.0
e 24 23 11.0
e 26 73 7.0
e 26 24 96.0
e 27 296 96.0
e 27 26 2.0
e 28 50 68.0
e 28 105 63.0
e 28 86 84.0
e 28 27 57.0
e 29 215 1.0
e 29 28 50.0
e 30 31 63.0
e 30 29 2.0
e 31 164 56.0
e 31 121 71.0
e 32 44 30.0
e 32 87 48.0
e 32 275 97.0
e 32 30 45.0
e 33 225 1.0
e 33 32 26.0
e 35 245 5.0
e 35 33 2.0
e 36 301 80.0
e 36 97 71.0
e 36 71 85.0
e 36 35 44.0
e 37 148 33.0
e 38 210 59.0
e 38 305 20.0
e 38 285 46.0
e 38 36 36.0
e 39 40 1.0
e 39 38 10.0
e 41 156 2.0
e 41 39 1.0
e 42 64 20.0
e 42 263 37.0
e 42 94 51.0
e 42 41 24.0
e 43 45 24.0
e 45 228 67.0
e 46 306 4.0
e 46 42 38.0
e 47 111 80.0
e 47 48 53.0
e 47 182 79.0
e 47 46 49.0
e 49 144 1.0
e 49 47 41.0
e 51 249 83.0
e 51 136 39.0
e 51 277 87.0
e 51 49 9.0
e 52 295 70.0
e 52 53 81.0
e 52 82 82.0
e 52 51 61.0
e 53 267 65.0
e 53 104 32.0
e 54 55 40.0
e 54 80 15.0
e 54 273 1.0
e 54 52 32.0
e 56 171 53.0
e 56 92 45.0
e 56 151 5.0
e 56 54 41.0
e 57 221 32.0
e 57 56 82.0
e 58 101 45.0
e 58 292 5.0
e 58 250 20.0
e 58 57 91.0
e 59 264 20.0
e 59 273 40.0
e 59 139 25.0
e 61 123 39.0
e 61 237 44.0
e 61 58 11.0
e 62 313 3.0
e 62 61 14.0
e 63 174 88.0
e 63 303 70.0
e 63 143 97.0
e 63 62 20.0
e 64 286 19.0
e 64 276 8.0
e 65 96 1.0
e 65 63 50.0
e 66 220 74.0
e 67 204 45.0
e 67 99 81.0
e 67 286 71.0
e 68 169 87.0
e 68 65 3.0
e 69 127 70.0
e 69 70 22.0
e 69 158 27.0
e 69 68 45.0
e 72 74 54.0
e 72 75 88.0
e 72 246 72.0
e 72 69 20.0
e 76 77 2.0
e 76 72 22.0
e 78 250 75.0
e 78 81 59.0
e 78 88 64.0
e 89 302 58.0
e 89 90 79.0
e 89 201 42.0
e 89 76 49.0
e 93 304 11.0
e 95 221 3.0
e 98 219 78.0
e 100 102 11.0
e 100 89 31.0
e 103 292 93.0
e 106 262 9.0
e 106 100 1.0
e 107 108 16.0
e 107 278 8.0
e 109 258 3.0
e 109 106 11.0
e 112 113 1.0
e 112 109 1.0
e 114 115 2.0
e 114 112 4.0
e 116 239 2.0
e 116 114 2.0
e 117 118 65.0
e 117 116 2.0
e 118 126 71.0
e 118 308 8.0
e 120 271 24.0
e 120 117 1.0
e 122 124 4.0
e 124 184 31.0
e 124 125 69.0
e 128 309 19.0
e 128 137 13.0
e 128 149 2.0
e 128 120 99.0
e 129 130 16.0
e 129 128 14.0
e 130 310 26.0
e 130 131 50.0
e 132 311 5.0
e 132 129 1.0
e 133 134 3.0
e 133 132 1.0
e 135 138 6.0
e 135 133 1.0
e 140 304 68.0
e 141 296 69.0
e 142 143 32.0
e 143 157 85.0
e 145 150 1.0
e 145 135 5.0
e 146 147 10.0
e 146 298 100.0
e 146 282 98.0
e 147 209 1.0
e 147 187 46.0
e 148 294 96.0
e 148 152 51.0
e 152 153 74.0
e 152 154 29.0
e 155 158 23.0
e 155 162 8.0
e 155 268 30.0
e 158 159 77.0
e 161 283 68.0
e 163 211 1.0
e 163 145 5.0
e 165 292 76.0
e 166 288 2.0
e 166 163 5.0
e 167 247 30.0
e 168 270 5.0
e 168 166 5.0
e 169 191 75.0
e 169 170 57.0
e 171 247 23.0
e 171 172 61.0
e 173 174 9.0
e 174 175 89.0
e 176 177 1.0
e 176 168 3.0
e 178 208 2.0
e 178 176 3.0
e 179 297 62.0
e 180 318 18.0
e 181 277 48.0
e 183 185 1.0
e 183 178 5.0
e 184 186 30.0
e 188 216 20.0
e 188 189 93.0
e 188 190 75.0
e 190 222 60.0
e 190 192 76.0
e 192 193 87.0
e 192 194 46.0
e 197 284 4.0
e 197 183 1.0
e 198 199 2.0
e 198 197 2.0
e 200 257 14.0
e 200 296 34.0
e 200 202 25.0
e 203 204 88.0
e 204 212 16.0
e 205 206 9.0
e 206 257 20.0
e 206 207 52.0
e 207 213 34.0
e 207 216 43.0
e 213 256 62.0
e 213 229 18.0
e 216 217 43.0
e 219 220 99.0
e 219 221 23.0
e 220 223 30.0
e 224 226 6.0
e 224 198 1.0
e 227 229 73.0
e 229 231 21.0
e 231 232 18.0
e 231 233 93.0
e 235 236 1.0
e 235 224 1.0
e 238 240 1.0
e 238 235 4.0
e 241 242 51.0
e 241 243 74.0
e 241 244 4.0
e 242 247 98.0
e 242 248 47.0
e 250 251 70.0
e 252 261 59.0
e 253 254 41.0
e 253 298 89.0
e 253 255 92.0
e 257 259 55.0
e 261 298 19.0
e 261 265 53.0
e 265 266 88.0
e 265 269 9.0
e 269 272 77.0
e 269 274 42.0
e 272 279 17.0
e 272 277 27.0
e 279 280 7.0
e 279 281 22.0
e 283 286 40.0
e 283 287 73.0
e 289 290 3.0
e 289 238 3.0
e 291 294 54.0
e 291 297 61.0
e 291 299 63.0
e 294 297 80.0
e 302 304 17.0
e 302 312 96.0
e 314 315 72.0
e 315 316 70.0
e 315 318 93.0
e 319 289 1.0
